p cnf 35 218
-32 35 33 -34 31 0
-8 -6 10 -9 -7 0
20 -16 17 19 -18 0
34 35 32 33 -31 0
4 3 -2 -5 1 0
30 27 -28 -26 29 0
10 6 -7 -8 -9 0
32 -31 34 33 -35 0
12 15 -14 -11 -13 0
29 -28 26 -27 -30 0
20 18 -19 -16 17 0
16 -20 18 -19 17 0
21 23 22 25 -24 0
10 6 7 -8 -9 0
8 7 -9 6 -10 0
-21 24 -22 23 -25 0
-6 -7 9 10 -8 0
1 4 5 -2 -3 0
-21 -22 -23 -24 25 0
13 -11 12 -14 15 0
27 26 -28 30 29 0
31 -34 -32 35 -33 0
29 26 27 28 -30 0
20 -17 16 -18 -19 0
-9 -10 8 -6 -7 0
-24 -22 23 25 -21 0
-3 1 5 2 -4 0
-8 -9 -10 -6 -7 0
30 26 29 28 -27 0
34 -32 33 35 31 0
27 -30 26 -28 29 0
9 -7 -8 -10 6 0
23 21 -25 24 -22 0
-1 5 4 -3 -2 0
20 19 -17 16 18 0
-25 -22 21 23 -24 0
12 14 15 11 -13 0
-5 3 -4 -2 1 0
3 -4 1 -2 5 0
14 -13 -12 -15 -11 0
-31 35 34 -32 33 0
13 -11 14 -15 -12 0
15 11 13 12 14 0
22 25 23 -21 -24 0
-17 -18 -20 19 -16 0
-4 -1 3 5 -2 0
15 -12 -11 -14 -13 0
2 4 3 5 -1 0
-18 -16 -20 19 17 0
10 8 -9 -7 6 0
-19 18 -20 -17 16 0
-7 -9 -8 6 -10 0
31 32 35 34 33 0
8 2 27 -18 -31 0
33 34 -35 32 31 0
-3 2 -5 -4 -1 0
-6 8 7 10 -9 0
-25 -23 -21 -22 -24 0
16 -17 19 18 -20 0
10 9 8 -6 -7 0
8 -34 -2 20 -26 0
22 -24 -21 23 -25 0
-15 -11 12 14 -13 0
-32 35 -34 -31 -33 0
14 12 13 -11 -15 0
8 7 9 -6 10 0
35 -31 33 -32 -34 0
-33 8 -11 -2 18 0
30 -28 29 -27 26 0
22 25 -21 24 23 0
15 -12 14 11 -13 0
30 -26 -29 28 -27 0
-31 -35 32 -33 34 0
34 35 32 31 -33 0
-17 -16 -20 -19 -18 0
31 33 32 35 -34 0
-14 15 -11 -12 13 0
11 -14 -15 12 13 0
-32 -31 33 -35 34 0
-5 4 -2 -1 3 0
-8 -6 7 9 -10 0
-18 17 19 20 16 0
-2 23 15 32 30 0
16 -19 -20 -18 -17 0
16 29 7 15 21 0
-34 -31 -35 -32 -33 0
4 -5 -1 -3 2 0
15 12 -13 14 -11 0
-10 -24 20 -35 -30 0
21 -24 -23 -25 -22 0
-33 -32 35 34 -31 0
21 24 -25 -23 22 0
-15 13 -14 12 -11 0
6 7 -9 -10 -8 0
3 2 1 5 4 0
-1 -3 -2 4 -5 0
10 -9 -6 -7 8 0
9 10 7 8 6 0
24 -21 -23 25 -22 0
-17 -16 20 19 18 0
-18 16 -17 20 19 0
33 -31 -32 -34 -35 0
-28 -27 26 30 -29 0
26 -9 23 -35 -19 0
6 9 -7 -8 10 0
-33 31 -35 -32 -34 0
30 -28 -26 -27 -29 0
-35 31 34 -32 -33 0
-7 8 -10 6 -9 0
-26 -30 -28 -29 27 0
-12 15 11 -14 -13 0
-12 14 -13 -11 15 0
7 6 10 -9 8 0
32 35 33 -34 -31 0
-4 -3 5 -1 2 0
-2 -4 -1 -3 -5 0
-34 32 33 -31 -35 0
14 23 -34 -26 5 0
15 -11 13 14 12 0
34 31 -33 -32 35 0
-35 -34 32 33 31 0
-4 3 2 -5 -1 0
-27 -29 -26 -28 -30 0
-25 -21 -23 22 -24 0
17 19 16 18 20 0
22 24 -25 -23 -21 0
19 17 20 -16 18 0
-26 -28 -27 29 -30 0
-31 -35 -32 -33 34 0
-6 -8 -10 7 -9 0
-35 34 33 31 -32 0
-19 20 16 17 18 0
27 30 -29 -26 28 0
21 -22 -23 24 25 0
-30 26 -28 -29 -27 0
-24 25 21 -22 23 0
13 -25 4 -31 -19 0
-29 27 -30 -28 26 0
3 4 -2 -1 5 0
28 29 -26 27 30 0
-18 27 -21 -35 -4 0
-16 -19 -20 -17 18 0
-33 -34 31 32 -35 0
30 27 26 29 28 0
-15 11 -12 -13 14 0
-8 -6 7 10 9 0
8 -9 7 -6 -10 0
27 -29 -30 28 26 0
15 13 11 -12 14 0
-6 9 7 -10 8 0
-27 26 -30 28 29 0
-34 33 -35 31 -32 0
-24 25 -22 21 -23 0
30 27 28 -29 26 0
-18 20 17 -19 -16 0
-15 11 12 14 13 0
-24 22 25 -23 21 0
8 9 -7 -10 6 0
2 -4 -5 1 3 0
26 30 -27 28 -29 0
-22 24 21 -25 -23 0
-20 19 -16 18 -17 0
-3 -2 -4 1 -5 0
15 -25 -5 29 31 0
20 -16 -19 -17 18 0
-14 -11 -13 -12 -15 0
-13 -14 11 -15 12 0
11 -13 12 14 -15 0
32 35 31 -34 -33 0
4 1 2 3 -5 0
-4 1 -3 -2 5 0
20 16 -19 17 -18 0
27 -26 -30 -28 29 0
28 -29 26 -30 -27 0
25 24 -22 23 -21 0
-12 13 14 15 -11 0
11 -14 -12 -15 -13 0
9 -10 -8 7 6 0
-19 -20 -16 17 18 0
-24 23 -25 21 22 0
8 9 7 6 -10 0
-26 29 -30 27 28 0
25 21 24 23 -22 0
24 22 23 25 21 0
10 6 9 7 -8 0
17 16 -19 -18 -20 0
9 -7 -10 -6 -8 0
-9 -6 -8 10 7 0
-21 -25 -22 23 -24 0
-3 4 2 -1 5 0
5 -3 1 4 2 0
-30 28 27 -29 -26 0
6 -28 -19 14 4 0
31 -8 3 -30 -14 0
-1 5 2 -4 3 0
21 23 -25 24 22 0
35 -33 -31 -34 32 0
-20 17 19 -18 16 0
-2 3 5 1 4 0
27 -29 30 -28 -26 0
7 -23 20 26 -32 0
-30 -29 -27 28 -26 0
17 -16 -20 19 18 0
-25 24 22 -21 23 0
-15 -20 -28 -23 5 0
31 -35 34 -33 32 0
11 15 12 13 -14 0
13 -14 -12 -11 -15 0
22 25 -21 -23 -24 0
2 -3 -5 4 1 0
27 -28 26 30 -29 0
-25 -23 -22 24 -21 0
5 -4 -3 -1 -2 0
22 -23 -24 -25 21 0
13 -12 11 -14 15 0
-30 29 -26 -27 28 0
4 -5 1 -3 -2 0
-34 2 23 -27 -15 0
